n = 13;
lu = [|7, 104
      |-71, 156
      |69, 90
      |-132, 55
      |-160, -39
      |-84, 84
      |-62, 1
      |117, 151
      |-33, 169
      |-148, 106
      |-118, 127
      |20, 70
      |-98, 154|];
